50
324 621 9 983 823 1000 264 200 55 194 25 692 366 816 761 350 167 348 31 649 190 149 889 438 947 981 664 250 148 247 737 512 298 18 352 393 70 250 296 416 494 566 850 295 95 304 217 576 477 322 
6827 13085 189 20713 17341 21071 5562 4214 1158 4087 526 14581 7712 17194 16035 7374 3518 7332 653 13675 4003 3139 18732 9229 19954 20670 13991 5267 3118 5204 15529 10788 6279 379 7417 8281 1474 5267 6237 8765 10409 11926 17910 6216 2001 6405 4572 12137 10051 6784 
10454
